45

 0   0   0   0   0   0   0   0   0   9   0   0   0   0   0   0   0   0   0   0   0   0  26  26   2  26  26  26  26  26  29  29  29  29   8  29  29  29   3   5   7  20  16   5   8  
 0   0   0   0   0   0   0   0   0   0   0   0   0   0   0   0   0   0   0   0   0   0  26   9  26  26  26  26  26  26  29  29  29  29  29  29   2  29  11   8   7  16   5   4  20  
 0   0   0   0   0   0   0   0   0   0   0   0   0   0   0   0   0   0   0   0   0   0  26  26  26  26  26  26  26  26  29  29  29  29  29  29  29  29   9  10  18   9  10   4   9  
 0   0   0   0   0   0   0   0   0   0   0   0   0   1   9   0   0   0   0   0   0   0  26  26  26  26  26  26  26  26  29  29  29  29  29  29  29  29   5  18   1   5   5   1  19  
 0   0   0   0   0   0   7   0   0   0   0   0   0   0   0   0   0   0   0   7   0   0  26  26  26  26  26  26  26  26  29  29  29  29  29  29  29  29   2  20   5   9   2   5   9  
 0   0   0   0   0   0   0   0   0   0   0   0   0   0   0   0   0   0   0   0   0   0  26  26  26  26  26  26  26  26  29  29  29  29  29  29  29  29  11   7   8  14   2  10   8  
 0   0   0   0   7   0   0   0   0   0   0   0   0   0   0   0   0   0   0   0   0   0  26  26  26  26  26  26  26  26  29  29  29  29  29  29  29  29   5   2  20   1   7   8  19  
 0   0   0   0   0   0   0   0   0   0   0   0   0   2   0   0   0   0   0   0   0   0  26  26  26  26  26  26  26  26  29  29  29  29  29  29  29  29   7   8  14   8   6   4  14  
 0   0   0   0   0   0   0   0   0   0   0   0   3   0   0   0   0   0   0   0   0   0  26  26  26  26  26  26  26  26  19   5   6   8  15   4  18   7  31  31  31  31  31  31  31  
 9   0   0   0   0   0   0   0   0   0   0   0   0   0   9   0   0   0   0   0   0   0  26  26  26  26  26  26  26  26   4  15  17  16  13   1   3  15  31  31  31  31  31  31  31  
 0   0   0   0   0   0   0   0   0   0   0   0   0   0   0   0   0   0   0   0   0   0  26  26  26  26   4  26  26  26  10   4   7  18  19  17   2  19  31  31  31  31  31  31  31  
 0   0   0   0   0   0   0   0   0   0   0   0   0   0   0   0   0   0   2   0   0   0  26  26  26  26  26  26  26  26   1  20   8   5  13   8  17  15  31  31  31  31  31  31  31  
 0   0   0   0   0   0   0   0   3   0   0   0   0   0   0   0   0   0   0   0   0   0  26  26  26  26  26  26  26  26   5  11   5  18   9   7   2  11  31  31  31  31  31   2  31  
 0   0   0   1   0   0   0   2   0   0   0   0   0   0   0   0   0   0   1   0   9   0  26  26  26  26  26  26  26  26   6  12   9   6   5   6  18  11   4  31  31  31  31  31  31  
 0   0   0   9   0   0   0   0   0   9   0   0   0   0   0   0   0   4   3   0   0   9  26  26  26  26  26  26  26  26   8   8  10  14   6   1  14  16  31  31  31  31   7  31  31  
 0   0   0   0   0   0   0   0   0   0   0   0   0   0   0   0   0   0   0   0   0   0  20  12   2   8   3  16   5   8  27  27  27  27  27   5  27  27  26  26  26   1  26  26  26  
 0   0   0   0   0   0   0   0   0   0   0   0   0   0   0   0   0   0   0   0   0   0  15  11   8   4  11  18  15   2  27  27  27  27  27  27  27  27   1  26  26  26  26  26  26  
 0   0   0   0   0   0   0   0   0   0   0   0   0   0   4   0   0   0   0   0   0   0   4   7   5   7  10  19  19  15  27  27  27  27  27  27   5  27  26  26  26  26  26  26  26  
 0   0   0   0   0   0   0   0   0   0   0   2   0   1   3   0   0   0   0   0   0   0  19  17   5   4  20   7   6  12  27  27  27  27  27  27  27   4  26  26  26  26  26  26  26  
 0   0   0   0   7   0   0   0   0   0   0   0   0   0   0   0   0   0   0   0   0   0   4  15  18  10  18   8  13  15   3  27  27   6  27  27  27  27  26  26  26  26  26  26  26  
 0   0   0   0   0   0   0   0   0   0   0   0   0   9   0   0   0   0   0   0   0   0   2   5   3  15  11   4  14  18  27  27  27  27  27  27  27  27  26  26  26  26  26  26  26  
 0   0   0   0   0   0   0   0   0   0   0   0   0   0   9   0   0   0   0   0   0   0  10  18  10  20   2  17  10   1   3  27  27  27  27  27  27  27  26  26  26  26  26  26  26  
26  26  26  26  26  26  26  26  26  26  26  26  26  26  26  13  13  12  12   8   8  14   0   0   0   0   0   0   0   0   0   0   6   0   0   0   0   0   0   0   0   0   0   0   0  
26   9  26  26  26  26  26  26  26  26  26  26  26  26  26   9   3  19   5  15   8  14   0   0   0   0   0   0   0   0   0   0   4   0   0   0   0   0   0   0   0   0   0   0   0  
 2  26  26  26  26  26  26  26  26  26  26  26  26  26  26   8  14   1   5  12  13  14   0   0   0   0   0   0   0   0   0   0   0   0   0   0   0   0   0   0   0   0   0   0   0  
26  26  26  26  26  26  26  26  26  26  26  26  26  26  26  11  14   6   4  16  16  18   0   0   0   0   0   0   2   0   0   0   0   0   0   0   0   0   0   0   0   0   0   0   2  
26  26  26  26  26  26  26  26  26  26   4  26  26  26  26   3   9  10   2   4  20   5   0   0   0   0   0   0   8   0   0   0   0   0   0   0   0   0   0   0   0   0   0   0   0  
26  26  26  26  26  26  26  26  26  26  26  26  26  26  26  20  12  18   2  11   1  18   0   0   0   0   0   0   0   0   0   0   0   0   0   0   0   0   0   0   0   0   0   0   0  
26  26  26  26  26  26  26  26  26  26  26  26  26  26  26   9   4  18  19   2  15   4   0   0   0   2   8   0   0   0   0   0   0   0   0   0   0   0   0   0   0   0   0   0   0  
26  26  26  26  26  26  26  26  26  26  26  26  26  26  26   6   3   3  17  15  17  10   0   0   0   0   0   0   0   0   0   0   0   0   0   0   0   0   0   0   0   0   0   0   0  
29  29  29  29  29  29  29  29  11   5   8  15  19  16   9  27  27  27  27   3  27   3   0   0   0   0   0   0   0   0   0   0   0   0   0   0   0   0   0   0   0   0   0   0   0  
29  29  29  29  29  29  29  29  10   7   3  14  17   5  16  27  27  27  27  27  27  27   0   0   0   0   0   0   0   0   0   0   0   0   0   0   4   0   0   0   0   0   0   0   0  
29  29  29  29  29  29  29  29   2  18   7  10  11  15  20  27  27  27  27  27  27  27   6   4   0   0   0   0   0   0   0   0   0   0   0   0   0   0   0   0   0   0   0   0   0  
29  29  29  29  29  29  29  29  20   6   6  15  17  16  20  27  27  27  27   6  27  27   0   0   0   0   0   0   0   0   0   0   0   0   0   0   0   0   9   0   0   0   0   0   0  
 8  29  29  29  29  29  29  29   8   2   9   6  10  19  14  27  27  27  27  27  27  27   0   0   0   0   0   0   0   0   0   0   0   0   0   0   1   0   0   0   0   0   0   0   0  
29  29  29  29  29  29  29  29   4  17  12  12  10   4  14   5  27  27  27  27  27  27   0   0   0   0   0   0   0   0   0   0   0   0   0   0   0   0   0   0   0   0   0   0   0  
29   2  29  29  29  29  29  29  20  17   1  19   7   1  17  27  27   5  27  27  27  27   0   0   0   0   0   0   0   0   0   4   0   0   1   0   0   0   0   0   0   0   0   0   0  
29  29  29  29  29  29  29  29   4  20  14  18   7   9  16  27  27  27   4  27  27  27   0   0   0   0   0   0   0   0   0   0   0   0   0   0   0   0   0   0   0   0   0   0   0  
 2   6  20  12  14   9   6   1  31  31  31  31  31   4  31  26   1  26  26  26  26  26   0   0   0   0   0   0   0   0   0   0   0   9   0   0   0   0   0   0   0   0   0   0   0  
 6   5   9   7  19   7  12  12  31  31  31  31  31  31  31  26  26  26  26  26  26  26   0   0   0   0   0   0   0   0   0   0   0   0   0   0   0   0   0   0   0   0   0   0   0  
18   6   2   1   1   4   3  19  31  31  31  31  31  31  31  26  26  26  26  26  26  26   0   0   0   0   0   0   0   0   0   0   0   0   0   0   0   0   0   0   0   0   0   0   0  
 8   4  18   5   6  16   5   8  31  31  31  31  31  31  31   1  26  26  26  26  26  26   0   0   0   0   0   0   0   0   0   0   0   0   0   0   0   0   0   0   0   0   0   0   0  
13  16   6   5   8   6   7   5  31  31  31  31  31  31   7  26  26  26  26  26  26  26   0   0   0   0   0   0   0   0   0   0   0   0   0   0   0   0   0   0   0   0   0   0   0  
 5  16   4   3  19  14   8   6  31  31  31  31   2  31  31  26  26  26  26  26  26  26   0   0   0   0   0   0   0   0   0   0   0   0   0   0   0   0   0   0   0   0   0   0   6  
 4  18  19  13   4   6  14   6  31  31  31  31  31  31  31  26  26  26  26  26  26  26   0   0   0   2   0   0   0   0   0   0   0   0   0   0   0   0   0   0   0   0   0   6   0  

 0  15  11  20  17   5  14   9  28  28  28  28  28  28  28  29  29  29  29  29  29  29   0   0   3   0   0   0   0   0   0   0   0   0   0   0   0   0   0   0   0   0   0   0   0  
 1   0  20   4  15   4   4  12  28  28  28   5  28   3  28  29  29  29  29  29  29  29   0   0   0   0   0   0   0   0   0   0   0   0   0   0   0   0   0   0   0   0   0   0   0  
20   8   0  19   6  14   4  13  28  28  28  28  28  28  28  29  29  29  29  29  29  29   0   0   0   0   0   0   8   0   0   0   0   0   0   0   0   0   0   0   0   0   0   0   0  
20   8   4   0  16  17  10   8  28  28   5  28  28  28  28  29  29  29  29  29  29  29   0   0   0   0   0   0   0   0   0   0   0   0   0   0   0   0   0   0   0   0   0   0   0  
 8  12   5  17   0  12  17   5  28  28  28  28   4  28  28  29  29  29  29  29  29  29   0   0   0   0   0   0   0   0   0   0   0   0   0   0   0   0   0   0   0   0   0   0   0  
13  16   1   4  10   0  13  12  28  28   5  28  28  28  28  29  29  29  29  29  29  29   0   0   0   0   0   0   0   0   0   0   0   0   0   0   0   0   0   0   0   0   0   0   0  
 3   6  17  10  17   4   0  10  28  28  28  28  28  28  28  29  29  29  29  29  29  29   2   0   0   0   0   0   0   0   0   0   0   0   0   0   0   4   0   0   0   0   0   0   0  
 3  17   7   8   9   6   9   0  28  28  28  28  28  28  28  29  29  29  29  29  29  29   0   0   0   0   0   0   0   0   7   0   0   0   0   0   0   0   0   9   0   0   0   0   0  
28  28  28  28  28  28  28  28   0   6  16   5   3   7   1  29  29  29  29  29  29  29   0   0   0   0   0   0   0   5   0   0   0   0   0   0   0   0   0   0   0   0   7   0   0  
28  28  28  28  28  28  28  28   1   0  11   3   7  20   1  29  29  29  29  29  29  29   0   0   0   0   0   0   0   0   0   0   0   0   0   0   0   0   0   0   0   0   0   0   0  
28  28  28   5  28   5  28  28  12  15   0  12  17  10   2  29  29  29  29  29  29  29   2   0   5   0   0   0   0   0   0   0   0   0   0   0   0   0   0   0   0   0   0   0   0  
28   5  28  28  28  28  28  28  13   3   8   0   2  19  14  29  29  29  29  29  29  29   0   0   0   0   0   0   0   0   0   0   0   0   2   0   0   0   0   0   0   0   0   0   0  
28  28  28  28   4  28  28  28  10  20  13  11   0  15   4  29  29  29  29  29  29  29   0   0   0   0   0   0   0   0   0   0   5   0   0   0   0   0   0   0   0   0   0   0   0  
28   3  28  28  28  28  28  28  17  20  18  13   4   0   4  29  29  29   9  29  29  29   0   5   0   2   0   0   0   0   0   0   0   0   6   0   0   0   0   0   0   7   0   0   0  
28  28  28  28  28  28  28  28   7  15   1  16  10  14   0  29  29  29  29  29  29  29   0   0   0   0   0   5   0   0   0   0   0   0   0   0   0   0   0   0   0   0   0   0   0  
29  29  29  29  29  29  29  29  29  29  29  29  29  29  29   0  20  17  16  14  11   9   0   0   0   0   1   0   0   0   0   0   0   0   0   0   0   0   0   0   0   0   0   0   0  
29  29  29  29  29  29  29  29  29  29  29  29  29  29  29  11   0  11   9  13  12  12   0   0   0   0   0   0   0   8   0   0   0   0   0   0   0   0   0   0   0   0   0   0   0  
29  29  29  29  29  29  29  29  29  29  29  29  29  29  29  12   8   0   1   5  16  20   0   0   0   0   0   0   0   5   0   0   0   0   0   0   0   0   0   0   2   0   0   0   0  
29  29  29  29  29  29  29  29  29  29  29  29  29   9  29  19   3   1   0   5  14  20   0   0   0   0   0   0   0   0   0   0   0   0   0   0   0   0   0   0   0   0   0   1   5  
29  29  29  29  29  29  29  29  29  29  29  29  29  29  29  13  17  20   5   0   8  15   0   0   0   0   0   0   0   0   0   0   0   0   0   0   0   1   0   0   0   0   0   0   0  
29  29  29  29  29  29  29  29  29  29  29  29  29  29  29   3   1  13   2  15   0  15   0   0   0   0   0   0   0   0   0   0   0   0   0   0   0   0   0   0   0   0   6   0   0  
29  29  29  29  29  29  29  29  29  29  29  29  29  29  29   6   8  18   3  10   9   0   0   0   0   0   0   0   0   0   0   0   0   0   0   0   0   0   0   0   0   0   0   0   0  
 0   0   0   0   0   0   2   0   0   0   2   0   0   0   0   0   0   0   0   0   0   0   7   3  15   8  20  18  18  10  25  25  25  25  25  25  25  25  26  26  26  26  26  26  26  
 0   0   0   0   0   0   0   0   0   0   0   0   0   5   0   0   0   0   0   0   0   0   8   4  18  16  12   1  13   5  25  25  25  25  25  25  25  25  26  26  26  26  26  26  26  
 3   0   0   0   0   0   0   0   0   0   5   0   0   0   0   0   0   0   0   0   0   0  14   6   1   3   5   9   3  11  25  25  25  25  25   1  25  25  26  26  26  26  26  26  26  
 0   0   0   0   0   0   0   0   0   0   0   0   0   2   0   0   0   0   0   0   0   0  17  15  12   9  20   1  13  11  25  25   4  25  25  25  25  25  26  26  26  26  26  26  26  
 0   0   0   0   0   0   0   0   0   0   0   0   0   0   0   1   0   0   0   0   0   0  18  17   8   6  12   2   8  20  25  25  25  25   1  25  25  25  26  26  26   5  26  26  26  
 0   0   0   0   0   0   0   0   0   0   0   0   0   0   5   0   0   0   0   0   0   0  13  17  10  13  12  15   1   4  25  25  25  25  25  25  25  25  26  26  26  26  26  26  26  
 0   0   8   0   0   0   0   0   0   0   0   0   0   0   0   0   0   0   0   0   0   0   1  20   6  18  10   1   7  18  25   7  25  25  25  25  25  25  26  26  26  26  26  26  26  
 0   0   0   0   0   0   0   0   5   0   0   0   0   0   0   0   8   5   0   0   0   0  15   7  18  18  12  17  13   8  25  25  25  25  25  25  25  25  26  26  26  26  26  26  26  
 0   0   0   0   0   0   0   7   0   0   0   0   0   0   0   0   0   0   0   0   0   0  25  25  25  25  25  25  25  25  14   2  17  12  13   3   4   6  27  27  27  27  27  27  27  
 0   0   0   0   0   0   0   0   0   0   0   0   0   0   0   0   0   0   0   0   0   0  25  25  25  25  25  25   7  25   2   8  14   4   4   8  14   1  27  27  27  27  27  27  27  
 0   0   0   0   0   0   0   0   0   0   0   0   5   0   0   0   0   0   0   0   0   0  25  25  25   4  25  25  25  25   8  18  18   1  10   2  14   6  27  27  27  27  27  27  27  
 0   0   0   0   0   0   0   0   0   0   0   0   0   0   0   0   0   0   0   0   0   0  25  25  25  25  25  25  25  25  19  12  10  17  18   8  10   2  27  27  27  27  27  27  27  
 0   0   0   0   0   0   0   0   0   0   0   2   0   6   0   0   0   0   0   0   0   0  25  25  25  25   1  25  25  25  11  11   8  10   3  15  15  13  27  27  27  27  27  27  27  
 0   0   0   0   0   0   0   0   0   0   0   0   0   0   0   0   0   0   0   0   0   0  25  25   1  25  25  25  25  25   1   9  16  18  20   6  17  12  27  27  27  27  27  27  27  
 0   0   0   0   0   0   0   0   0   0   0   0   0   0   0   0   0   0   0   0   0   0  25  25  25  25  25  25  25  25  18  16  13  20   4  12  17  10  27   8  27  27  27  27  27  
 0   0   0   0   0   0   4   0   0   0   0   0   0   0   0   0   0   0   0   1   0   0  25  25  25  25  25  25  25  25  16  12  13  11  17   4   8   3  27  27  27   8  27   1  27  
 0   0   0   0   0   0   0   0   0   0   0   0   0   0   0   0   0   0   0   0   0   0  26  26  26  26  26  26  26  26  27  27  27  27  27  27  27  27  17  11  19  17  20  13   5  
 0   0   0   0   0   0   0   9   0   0   0   0   0   0   0   0   0   0   0   0   0   0  26  26  26  26  26  26  26  26  27  27  27  27  27  27   8  27  17   9  14  14  10  16  11  
 0   0   0   0   0   0   0   0   0   0   0   0   0   0   0   0   0   2   0   0   0   0  26  26  26  26  26  26  26  26  27  27  27  27  27  27  27  27  17   2  13  20  12   4  20  
 0   0   0   0   0   0   0   0   0   0   0   0   0   7   0   0   0   0   0   0   0   0  26  26  26  26   5  26  26  26  27  27  27  27  27  27  27   8  16   9   3  13   2  17   1  
 0   0   0   0   0   0   0   0   7   0   0   0   0   0   0   0   0   0   0   0   6   0  26  26  26  26  26  26  26  26  27  27  27  27  27  27  27  27   3  16  19  19  14  17   3  
 0   0   0   0   0   0   0   0   0   0   0   0   0   0   0   0   0   0   1   0   0   0  26  26  26  26  26  26  26  26  27  27  27  27  27  27  27   1  14   6  10   4  16   1  10  
 0   0   0   0   0   0   0   0   0   0   0   0   0   0   0   0   0   0   5   0   0   0  26  26  26  26  26  26  26  26  27  27  27  27  27  27  27  27   2   1  15   8  13  10   1  
